11
0 44 32 25 86 34 97 54 61 54 8 
64 0 90 54 17 22 61 15 32 27 81 
21 4 0 82 9 61 10 89 21 100 40 
86 42 2 0 22 63 21 39 2 41 59 
80 75 38 29 0 77 5 37 34 57 55 
46 5 99 9 14 0 99 32 54 73 10 
96 33 7 19 17 92 0 72 73 78 53 
40 34 53 4 97 98 96 0 68 62 53 
4 77 52 26 42 27 3 66 0 29 41 
39 73 69 88 95 11 82 21 38 0 73 
44 100 92 67 26 55 83 45 60 54 0 
